benchmark/results/graph__15-1000-0.10-03_16/graph__15-1000-0.10-03_16_Quinton_Benders_primal_sub.lp
\ This file has been generated by DOcplex
\ ENCODING=ISO-8859-1
\Problem name: Quinton Benders_primal_sub

Maximize
 obj: tau
Subject To
 c1: tau <= 0.000824402308
 c2: y_a0_proc_0 + y_a0_proc_2 - tau = 0
 c3: y_a0_proc_0 <= 1
 c4: y_a0_proc_2 <= 0
 c5: tau <= 0.000969932105
 c6: y_a1_proc_0 + y_a1_proc_1 + y_a1_proc_2 - tau = 0
 c7: y_a1_proc_0 <= 0
 c8: y_a1_proc_1 <= 1
 c9: y_a1_proc_2 <= 0
 c10: tau <= 0.001256281407
 c11: y_a2_proc_1 + y_a2_proc_2 - tau = 0
 c12: y_a2_proc_1 <= 1
 c13: y_a2_proc_2 <= 0
 c14: tau <= 0.001430615165
 c15: y_a3_proc_0 + y_a3_proc_1 - tau = 0
 c16: y_a3_proc_0 <= 0
 c17: y_a3_proc_1 <= 1
 c18: tau <= 0.003344481605
 c19: y_a4_proc_1 + y_a4_proc_2 - tau = 0
 c20: y_a4_proc_1 <= 1
 c21: y_a4_proc_2 <= 0
 c22: tau <= 0.001355013550
 c23: y_a5_proc_0 + y_a5_proc_1 + y_a5_proc_2 - tau = 0
 c24: y_a5_proc_0 <= 0
 c25: y_a5_proc_1 <= 1
 c26: y_a5_proc_2 <= 0
 c27: tau <= 0.000827129859
 c28: y_a6_proc_0 + y_a6_proc_2 - tau = 0
 c29: y_a6_proc_0 <= 1
 c30: y_a6_proc_2 <= 0
 c31: tau <= 0.001026694045
 c32: y_a7_proc_0 + y_a7_proc_1 - tau = 0
 c33: y_a7_proc_0 <= 1
 c34: y_a7_proc_1 <= 0
 c35: tau <= 0.000919117647
 c36: y_a8_proc_0 + y_a8_proc_1 + y_a8_proc_2 - tau = 0
 c37: y_a8_proc_0 <= 1
 c38: y_a8_proc_1 <= 0
 c39: y_a8_proc_2 <= 0
 c40: tau <= 0.001165501166
 c41: y_a9_proc_0 + y_a9_proc_2 - tau = 0
 c42: y_a9_proc_0 <= 1
 c43: y_a9_proc_2 <= 0
 c44: tau <= 0.000946969697
 c45: y_a10_proc_0 + y_a10_proc_2 - tau = 0
 c46: y_a10_proc_0 <= 1
 c47: y_a10_proc_2 <= 0
 c48: tau <= 0.001019367992
 c49: y_a11_proc_0 + y_a11_proc_1 + y_a11_proc_2 - tau = 0
 c50: y_a11_proc_0 <= 0
 c51: y_a11_proc_1 <= 1
 c52: y_a11_proc_2 <= 0
 c53: tau <= 0.000789889415
 c54: y_a12_proc_0 + y_a12_proc_1 + y_a12_proc_2 - tau = 0
 c55: y_a12_proc_0 <= 0
 c56: y_a12_proc_1 <= 1
 c57: y_a12_proc_2 <= 0
 c58: tau <= 0.000817661488
 c59: y_a13_proc_0 + y_a13_proc_1 + y_a13_proc_2 - tau = 0
 c60: y_a13_proc_0 <= 0
 c61: y_a13_proc_1 <= 0
 c62: y_a13_proc_2 <= 1
 c63: tau <= 0.000904159132
 c64: y_a14_proc_0 + y_a14_proc_1 + y_a14_proc_2 - tau = 0
 c65: y_a14_proc_0 <= 0
 c66: y_a14_proc_1 <= 0
 c67: y_a14_proc_2 <= 1
 c68: u_a1 - u_a0 - 1213 y_a0_proc_0 - 1222 y_a0_proc_2 >= 0
 c69: u_a0 - u_a2 - 796 y_a2_proc_1 - 1193 y_a2_proc_2 >= -1
 c70: u_a2 - u_a3 - 857 y_a3_proc_0 - 699 y_a3_proc_1 >= 0
 c71: u_a3 - u_a4 - 299 y_a4_proc_1 - 1065 y_a4_proc_2 >= 0
 c72: u_a5 - u_a0 - 1213 y_a0_proc_0 - 1222 y_a0_proc_2 >= 0
 c73: u_a4 - u_a6 - 1209 y_a6_proc_0 - 986 y_a6_proc_2 >= 0
 c74: u_a7 - u_a5 - 1181 y_a5_proc_0 - 738 y_a5_proc_1 - 626 y_a5_proc_2 >= 0
 c75: u_a7 - u_a8 - 1088 y_a8_proc_0 - 705 y_a8_proc_1 - 1089 y_a8_proc_2 >= 0
 c76: u_a9 - u_a6 - 1209 y_a6_proc_0 - 986 y_a6_proc_2 >= -1
 c77: u_a10 - u_a8 - 1088 y_a8_proc_0 - 705 y_a8_proc_1 - 1089 y_a8_proc_2 >= 0
 c78: u_a8 - u_a11 - 1080 y_a11_proc_0 - 981 y_a11_proc_1 - 848 y_a11_proc_2
       >= 0
 c79: u_a12 - u_a10 - 1056 y_a10_proc_0 - 1254 y_a10_proc_2 >= 0
 c80: u_a4 - u_a13 - 985 y_a13_proc_0 - 1165 y_a13_proc_1 - 1223 y_a13_proc_2
       >= -1
 c81: u_a14 - u_a11 - 1080 y_a11_proc_0 - 981 y_a11_proc_1 - 848 y_a11_proc_2
       >= 0
 c82: u_a11 - u_a13 - 985 y_a13_proc_0 - 1165 y_a13_proc_1 - 1223 y_a13_proc_2
       >= -1
 c83: u_a14 - u_a7 - 974 y_a7_proc_0 - 1119 y_a7_proc_1 >= 0
 c84: u_a6 - u_a9 - 858 y_a9_proc_0 - 1044 y_a9_proc_2 >= 0
 c85: u_a13 - u_a12 - 1202 y_a12_proc_0 - 1266 y_a12_proc_1 - 448 y_a12_proc_2
       >= 0
 c86: u_a11 - u_a1 - 1093 y_a1_proc_0 - 1031 y_a1_proc_1 - 658 y_a1_proc_2 >= 0
 c87: u_a11 - u_a2 - 796 y_a2_proc_1 - 1193 y_a2_proc_2 >= 0
 c88: u_a5 - u_a12 - 1202 y_a12_proc_0 - 1266 y_a12_proc_1 - 448 y_a12_proc_2
       >= 0
 c89: u_a1 - u_a0 - 1222 y_a0_proc_2 >= -3798
 c90: u_a1 - u_a0 - 1213 y_a0_proc_0 >= -2532
 c91: u_a0 - u_a1 - 658 y_a1_proc_2 >= -1267
 c92: u_a0 - u_a1 - 1093 y_a1_proc_0 >= -1
 c93: u_a2 - u_a0 - 1222 y_a0_proc_2 >= -5065
 c94: u_a0 - u_a2 - 1193 y_a2_proc_2 >= 0
 c95: u_a3 - u_a0 - 1213 y_a0_proc_0 >= -2533
 c96: u_a0 - u_a3 - 857 y_a3_proc_0 >= 0
 c97: u_a4 - u_a0 - 1222 y_a0_proc_2 >= -5065
 c98: u_a0 - u_a4 - 1065 y_a4_proc_2 >= 0
 c99: u_a5 - u_a0 - 1222 y_a0_proc_2 >= -3798
 c100: u_a5 - u_a0 - 1213 y_a0_proc_0 >= -2532
 c101: u_a0 - u_a5 - 626 y_a5_proc_2 >= -1267
 c102: u_a0 - u_a5 - 1181 y_a5_proc_0 >= -1
 c103: u_a6 - u_a0 - 1222 y_a0_proc_2 >= -2533
 c104: u_a6 - u_a0 - 1213 y_a0_proc_0 >= -1
 c105: u_a0 - u_a6 - 986 y_a6_proc_2 >= -2532
 c106: u_a0 - u_a6 - 1209 y_a6_proc_0 >= 0
 c107: u_a7 - u_a0 - 1213 y_a0_proc_0 >= 0
 c108: u_a0 - u_a7 - 974 y_a7_proc_0 >= -1
 c109: u_a8 - u_a0 - 1222 y_a0_proc_2 >= -2532
 c110: u_a8 - u_a0 - 1213 y_a0_proc_0 >= 0
 c111: u_a0 - u_a8 - 1089 y_a8_proc_2 >= -2533
 c112: u_a0 - u_a8 - 1088 y_a8_proc_0 >= -1
 c113: u_a9 - u_a0 - 1222 y_a0_proc_2 >= -2533
 c114: u_a9 - u_a0 - 1213 y_a0_proc_0 >= -1
 c115: u_a0 - u_a9 - 1044 y_a9_proc_2 >= -2532
 c116: u_a0 - u_a9 - 858 y_a9_proc_0 >= 0
 c117: u_a10 - u_a0 - 1222 y_a0_proc_2 >= -2532
 c118: u_a10 - u_a0 - 1213 y_a0_proc_0 >= 0
 c119: u_a0 - u_a10 - 1254 y_a10_proc_2 >= -2533
 c120: u_a0 - u_a10 - 1056 y_a10_proc_0 >= -1
 c121: u_a11 - u_a0 - 1222 y_a0_proc_2 >= -3798
 c122: u_a11 - u_a0 - 1213 y_a0_proc_0 >= -2532
 c123: u_a0 - u_a11 - 848 y_a11_proc_2 >= -1267
 c124: u_a0 - u_a11 - 1080 y_a11_proc_0 >= -1
 c125: u_a12 - u_a0 - 1222 y_a0_proc_2 >= -3798
 c126: u_a12 - u_a0 - 1213 y_a0_proc_0 >= -2532
 c127: u_a0 - u_a12 - 448 y_a12_proc_2 >= -1267
 c128: u_a0 - u_a12 - 1202 y_a12_proc_0 >= -1
 c129: u_a13 - u_a0 - 1222 y_a0_proc_2 >= -2532
 c130: u_a13 - u_a0 - 1213 y_a0_proc_0 >= -2532
 c131: u_a0 - u_a13 - 1223 y_a13_proc_2 >= -1
 c132: u_a0 - u_a13 - 985 y_a13_proc_0 >= -1
 c133: u_a14 - u_a0 - 1222 y_a0_proc_2 >= -2531
 c134: u_a14 - u_a0 - 1213 y_a0_proc_0 >= -2531
 c135: u_a0 - u_a14 - 1106 y_a14_proc_2 >= -2
 c136: u_a0 - u_a14 - 850 y_a14_proc_0 >= -2
 c137: u_a2 - u_a1 - 658 y_a1_proc_2 >= -2533
 c138: u_a2 - u_a1 - 1031 y_a1_proc_1 >= -1
 c139: u_a1 - u_a2 - 1193 y_a2_proc_2 >= -2532
 c140: u_a1 - u_a2 - 796 y_a2_proc_1 >= 0
 c141: u_a3 - u_a1 - 1093 y_a1_proc_0 >= -2533
 c142: u_a3 - u_a1 - 1031 y_a1_proc_1 >= -1
 c143: u_a1 - u_a3 - 857 y_a3_proc_0 >= -2532
 c144: u_a1 - u_a3 - 699 y_a3_proc_1 >= 0
 c145: u_a4 - u_a1 - 658 y_a1_proc_2 >= -2533
 c146: u_a4 - u_a1 - 1031 y_a1_proc_1 >= -1
 c147: u_a1 - u_a4 - 1065 y_a4_proc_2 >= -2532
 c148: u_a1 - u_a4 - 299 y_a4_proc_1 >= 0
 c149: u_a5 - u_a1 - 658 y_a1_proc_2 >= -2532
 c150: u_a5 - u_a1 - 1093 y_a1_proc_0 >= -2532
 c151: u_a5 - u_a1 - 1031 y_a1_proc_1 >= 0
 c152: u_a1 - u_a5 - 626 y_a5_proc_2 >= -2533
 c153: u_a1 - u_a5 - 1181 y_a5_proc_0 >= -2533
 c154: u_a1 - u_a5 - 738 y_a5_proc_1 >= -1
 c155: u_a6 - u_a1 - 658 y_a1_proc_2 >= -3799
 c156: u_a6 - u_a1 - 1093 y_a1_proc_0 >= -2533
 c157: u_a1 - u_a6 - 986 y_a6_proc_2 >= -1266
 c158: u_a1 - u_a6 - 1209 y_a6_proc_0 >= 0
 c159: u_a7 - u_a1 - 1093 y_a1_proc_0 >= -2532
 c160: u_a7 - u_a1 - 1031 y_a1_proc_1 >= -2532
 c161: u_a1 - u_a7 - 974 y_a7_proc_0 >= -1
 c162: u_a1 - u_a7 - 1119 y_a7_proc_1 >= -1
 c163: u_a8 - u_a1 - 658 y_a1_proc_2 >= -3798
 c164: u_a8 - u_a1 - 1093 y_a1_proc_0 >= -2532
 c165: u_a8 - u_a1 - 1031 y_a1_proc_1 >= -2532
 c166: u_a1 - u_a8 - 1089 y_a8_proc_2 >= -1267
 c167: u_a1 - u_a8 - 1088 y_a8_proc_0 >= -1
 c168: u_a1 - u_a8 - 705 y_a8_proc_1 >= -1
 c169: u_a9 - u_a1 - 658 y_a1_proc_2 >= -3799
 c170: u_a9 - u_a1 - 1093 y_a1_proc_0 >= -2533
 c171: u_a1 - u_a9 - 1044 y_a9_proc_2 >= -1266
 c172: u_a1 - u_a9 - 858 y_a9_proc_0 >= 0
 c173: u_a10 - u_a1 - 658 y_a1_proc_2 >= -3798
 c174: u_a10 - u_a1 - 1093 y_a1_proc_0 >= -2532
 c175: u_a1 - u_a10 - 1254 y_a10_proc_2 >= -1267
 c176: u_a1 - u_a10 - 1056 y_a10_proc_0 >= -1
 c177: u_a11 - u_a1 - 658 y_a1_proc_2 >= -2532
 c178: u_a11 - u_a1 - 1093 y_a1_proc_0 >= -2532
 c179: u_a11 - u_a1 - 1031 y_a1_proc_1 >= 0
 c180: u_a1 - u_a11 - 848 y_a11_proc_2 >= -2533
 c181: u_a1 - u_a11 - 1080 y_a11_proc_0 >= -2533
 c182: u_a1 - u_a11 - 981 y_a11_proc_1 >= -1
 c183: u_a12 - u_a1 - 658 y_a1_proc_2 >= -2532
 c184: u_a12 - u_a1 - 1093 y_a1_proc_0 >= -2532
 c185: u_a12 - u_a1 - 1031 y_a1_proc_1 >= 0
 c186: u_a1 - u_a12 - 448 y_a12_proc_2 >= -2533
 c187: u_a1 - u_a12 - 1202 y_a12_proc_0 >= -2533
 c188: u_a1 - u_a12 - 1266 y_a12_proc_1 >= -1
 c189: u_a13 - u_a1 - 658 y_a1_proc_2 >= -2532
 c190: u_a13 - u_a1 - 1093 y_a1_proc_0 >= -3798
 c191: u_a13 - u_a1 - 1031 y_a1_proc_1 >= -2532
 c192: u_a1 - u_a13 - 1223 y_a13_proc_2 >= -1
 c193: u_a1 - u_a13 - 985 y_a13_proc_0 >= -1267
 c194: u_a1 - u_a13 - 1165 y_a13_proc_1 >= -1
 c195: u_a14 - u_a1 - 658 y_a1_proc_2 >= -2532
 c196: u_a14 - u_a1 - 1093 y_a1_proc_0 >= -3798
 c197: u_a14 - u_a1 - 1031 y_a1_proc_1 >= -2532
 c198: u_a1 - u_a14 - 1106 y_a14_proc_2 >= -1
 c199: u_a1 - u_a14 - 850 y_a14_proc_0 >= -1267
 c200: u_a1 - u_a14 - 1150 y_a14_proc_1 >= -1
 c201: u_a3 - u_a2 - 796 y_a2_proc_1 >= -1
 c202: u_a2 - u_a3 - 699 y_a3_proc_1 >= 0
 c203: u_a4 - u_a2 - 1193 y_a2_proc_2 >= -2533
 c204: u_a4 - u_a2 - 796 y_a2_proc_1 >= -1
 c205: u_a2 - u_a4 - 1065 y_a4_proc_2 >= -2532
 c206: u_a2 - u_a4 - 299 y_a4_proc_1 >= 0
 c207: u_a5 - u_a2 - 1193 y_a2_proc_2 >= -2532
 c208: u_a5 - u_a2 - 796 y_a2_proc_1 >= 0
 c209: u_a2 - u_a5 - 626 y_a5_proc_2 >= -2533
 c210: u_a2 - u_a5 - 738 y_a5_proc_1 >= -1
 c211: u_a6 - u_a2 - 1193 y_a2_proc_2 >= -5065
 c212: u_a2 - u_a6 - 986 y_a6_proc_2 >= 0
 c213: u_a7 - u_a2 - 796 y_a2_proc_1 >= -2531
 c214: u_a2 - u_a7 - 1119 y_a7_proc_1 >= -2
 c215: u_a8 - u_a2 - 1193 y_a2_proc_2 >= -3798
 c216: u_a8 - u_a2 - 796 y_a2_proc_1 >= -2532
 c217: u_a2 - u_a8 - 1089 y_a8_proc_2 >= -1267
 c218: u_a2 - u_a8 - 705 y_a8_proc_1 >= -1
 c219: u_a9 - u_a2 - 1193 y_a2_proc_2 >= -5065
 c220: u_a2 - u_a9 - 1044 y_a9_proc_2 >= 0
 c221: u_a10 - u_a2 - 1193 y_a2_proc_2 >= -5064
 c222: u_a2 - u_a10 - 1254 y_a10_proc_2 >= -1
 c223: u_a11 - u_a2 - 1193 y_a2_proc_2 >= -2532
 c224: u_a11 - u_a2 - 796 y_a2_proc_1 >= 0
 c225: u_a2 - u_a11 - 848 y_a11_proc_2 >= -2533
 c226: u_a2 - u_a11 - 981 y_a11_proc_1 >= -1
 c227: u_a12 - u_a2 - 1193 y_a2_proc_2 >= -2532
 c228: u_a12 - u_a2 - 796 y_a2_proc_1 >= 0
 c229: u_a2 - u_a12 - 448 y_a12_proc_2 >= -2533
 c230: u_a2 - u_a12 - 1266 y_a12_proc_1 >= -1
 c231: u_a13 - u_a2 - 1193 y_a2_proc_2 >= -2532
 c232: u_a13 - u_a2 - 796 y_a2_proc_1 >= -2532
 c233: u_a2 - u_a13 - 1223 y_a13_proc_2 >= -1
 c234: u_a2 - u_a13 - 1165 y_a13_proc_1 >= -1
 c235: u_a14 - u_a2 - 1193 y_a2_proc_2 >= -2531
 c236: u_a14 - u_a2 - 796 y_a2_proc_1 >= -2531
 c237: u_a2 - u_a14 - 1106 y_a14_proc_2 >= -2
 c238: u_a2 - u_a14 - 1150 y_a14_proc_1 >= -2
 c239: u_a4 - u_a3 - 699 y_a3_proc_1 >= -1
 c240: u_a3 - u_a4 - 299 y_a4_proc_1 >= 0
 c241: u_a5 - u_a3 - 857 y_a3_proc_0 >= -2532
 c242: u_a5 - u_a3 - 699 y_a3_proc_1 >= 0
 c243: u_a3 - u_a5 - 1181 y_a5_proc_0 >= -2533
 c244: u_a3 - u_a5 - 738 y_a5_proc_1 >= -1
 c245: u_a6 - u_a3 - 857 y_a3_proc_0 >= -2533
 c246: u_a3 - u_a6 - 1209 y_a6_proc_0 >= 0
 c247: u_a7 - u_a3 - 857 y_a3_proc_0 >= -2531
 c248: u_a7 - u_a3 - 699 y_a3_proc_1 >= -2531
 c249: u_a3 - u_a7 - 974 y_a7_proc_0 >= -2
 c250: u_a3 - u_a7 - 1119 y_a7_proc_1 >= -2
 c251: u_a8 - u_a3 - 857 y_a3_proc_0 >= -2532
 c252: u_a8 - u_a3 - 699 y_a3_proc_1 >= -2532
 c253: u_a3 - u_a8 - 1088 y_a8_proc_0 >= -1
 c254: u_a3 - u_a8 - 705 y_a8_proc_1 >= -1
 c255: u_a9 - u_a3 - 857 y_a3_proc_0 >= -2533
 c256: u_a3 - u_a9 - 858 y_a9_proc_0 >= 0
 c257: u_a10 - u_a3 - 857 y_a3_proc_0 >= -2532
 c258: u_a3 - u_a10 - 1056 y_a10_proc_0 >= -1
 c259: u_a11 - u_a3 - 857 y_a3_proc_0 >= -2532
 c260: u_a11 - u_a3 - 699 y_a3_proc_1 >= 0
 c261: u_a3 - u_a11 - 1080 y_a11_proc_0 >= -2533
 c262: u_a3 - u_a11 - 981 y_a11_proc_1 >= -1
 c263: u_a12 - u_a3 - 857 y_a3_proc_0 >= -2532
 c264: u_a12 - u_a3 - 699 y_a3_proc_1 >= 0
 c265: u_a3 - u_a12 - 1202 y_a12_proc_0 >= -2533
 c266: u_a3 - u_a12 - 1266 y_a12_proc_1 >= -1
 c267: u_a13 - u_a3 - 857 y_a3_proc_0 >= -3798
 c268: u_a13 - u_a3 - 699 y_a3_proc_1 >= -2532
 c269: u_a3 - u_a13 - 985 y_a13_proc_0 >= -1267
 c270: u_a3 - u_a13 - 1165 y_a13_proc_1 >= -1
 c271: u_a14 - u_a3 - 857 y_a3_proc_0 >= -3797
 c272: u_a14 - u_a3 - 699 y_a3_proc_1 >= -2531
 c273: u_a3 - u_a14 - 850 y_a14_proc_0 >= -1268
 c274: u_a3 - u_a14 - 1150 y_a14_proc_1 >= -2
 c275: u_a5 - u_a4 - 1065 y_a4_proc_2 >= -2532
 c276: u_a5 - u_a4 - 299 y_a4_proc_1 >= 0
 c277: u_a4 - u_a5 - 626 y_a5_proc_2 >= -2533
 c278: u_a4 - u_a5 - 738 y_a5_proc_1 >= -1
 c279: u_a6 - u_a4 - 1065 y_a4_proc_2 >= -5065
 c280: u_a4 - u_a6 - 986 y_a6_proc_2 >= 0
 c281: u_a7 - u_a4 - 299 y_a4_proc_1 >= -2531
 c282: u_a4 - u_a7 - 1119 y_a7_proc_1 >= -2
 c283: u_a8 - u_a4 - 1065 y_a4_proc_2 >= -3798
 c284: u_a8 - u_a4 - 299 y_a4_proc_1 >= -2532
 c285: u_a4 - u_a8 - 1089 y_a8_proc_2 >= -1267
 c286: u_a4 - u_a8 - 705 y_a8_proc_1 >= -1
 c287: u_a9 - u_a4 - 1065 y_a4_proc_2 >= -5065
 c288: u_a4 - u_a9 - 1044 y_a9_proc_2 >= 0
 c289: u_a10 - u_a4 - 1065 y_a4_proc_2 >= -5064
 c290: u_a4 - u_a10 - 1254 y_a10_proc_2 >= -1
 c291: u_a11 - u_a4 - 1065 y_a4_proc_2 >= -2532
 c292: u_a11 - u_a4 - 299 y_a4_proc_1 >= 0
 c293: u_a4 - u_a11 - 848 y_a11_proc_2 >= -2533
 c294: u_a4 - u_a11 - 981 y_a11_proc_1 >= -1
 c295: u_a12 - u_a4 - 1065 y_a4_proc_2 >= -2532
 c296: u_a12 - u_a4 - 299 y_a4_proc_1 >= 0
 c297: u_a4 - u_a12 - 448 y_a12_proc_2 >= -2533
 c298: u_a4 - u_a12 - 1266 y_a12_proc_1 >= -1
 c299: u_a13 - u_a4 - 1065 y_a4_proc_2 >= -2532
 c300: u_a13 - u_a4 - 299 y_a4_proc_1 >= -2532
 c301: u_a4 - u_a13 - 1223 y_a13_proc_2 >= -1
 c302: u_a4 - u_a13 - 1165 y_a13_proc_1 >= -1
 c303: u_a14 - u_a4 - 1065 y_a4_proc_2 >= -2531
 c304: u_a14 - u_a4 - 299 y_a4_proc_1 >= -2531
 c305: u_a4 - u_a14 - 1106 y_a14_proc_2 >= -2
 c306: u_a4 - u_a14 - 1150 y_a14_proc_1 >= -2
 c307: u_a6 - u_a5 - 626 y_a5_proc_2 >= -3799
 c308: u_a6 - u_a5 - 1181 y_a5_proc_0 >= -2533
 c309: u_a5 - u_a6 - 986 y_a6_proc_2 >= -1266
 c310: u_a5 - u_a6 - 1209 y_a6_proc_0 >= 0
 c311: u_a7 - u_a5 - 1181 y_a5_proc_0 >= -2532
 c312: u_a7 - u_a5 - 738 y_a5_proc_1 >= -2532
 c313: u_a5 - u_a7 - 974 y_a7_proc_0 >= -1
 c314: u_a5 - u_a7 - 1119 y_a7_proc_1 >= -1
 c315: u_a8 - u_a5 - 626 y_a5_proc_2 >= -3799
 c316: u_a8 - u_a5 - 1181 y_a5_proc_0 >= -2533
 c317: u_a8 - u_a5 - 738 y_a5_proc_1 >= -2533
 c318: u_a5 - u_a8 - 1089 y_a8_proc_2 >= -1266
 c319: u_a5 - u_a8 - 1088 y_a8_proc_0 >= 0
 c320: u_a5 - u_a8 - 705 y_a8_proc_1 >= 0
 c321: u_a9 - u_a5 - 626 y_a5_proc_2 >= -3799
 c322: u_a9 - u_a5 - 1181 y_a5_proc_0 >= -2533
 c323: u_a5 - u_a9 - 1044 y_a9_proc_2 >= -1266
 c324: u_a5 - u_a9 - 858 y_a9_proc_0 >= 0
 c325: u_a10 - u_a5 - 626 y_a5_proc_2 >= -3799
 c326: u_a10 - u_a5 - 1181 y_a5_proc_0 >= -2533
 c327: u_a5 - u_a10 - 1254 y_a10_proc_2 >= -1266
 c328: u_a5 - u_a10 - 1056 y_a10_proc_0 >= 0
 c329: u_a11 - u_a5 - 626 y_a5_proc_2 >= -2533
 c330: u_a11 - u_a5 - 1181 y_a5_proc_0 >= -2533
 c331: u_a11 - u_a5 - 738 y_a5_proc_1 >= -1
 c332: u_a5 - u_a11 - 848 y_a11_proc_2 >= -2532
 c333: u_a5 - u_a11 - 1080 y_a11_proc_0 >= -2532
 c334: u_a5 - u_a11 - 981 y_a11_proc_1 >= 0
 c335: u_a12 - u_a5 - 626 y_a5_proc_2 >= -2533
 c336: u_a12 - u_a5 - 1181 y_a5_proc_0 >= -2533
 c337: u_a12 - u_a5 - 738 y_a5_proc_1 >= -1
 c338: u_a5 - u_a12 - 448 y_a12_proc_2 >= -2532
 c339: u_a5 - u_a12 - 1202 y_a12_proc_0 >= -2532
 c340: u_a5 - u_a12 - 1266 y_a12_proc_1 >= 0
 c341: u_a13 - u_a5 - 626 y_a5_proc_2 >= -2532
 c342: u_a13 - u_a5 - 1181 y_a5_proc_0 >= -3798
 c343: u_a13 - u_a5 - 738 y_a5_proc_1 >= -2532
 c344: u_a5 - u_a13 - 1223 y_a13_proc_2 >= -1
 c345: u_a5 - u_a13 - 985 y_a13_proc_0 >= -1267
 c346: u_a5 - u_a13 - 1165 y_a13_proc_1 >= -1
 c347: u_a14 - u_a5 - 626 y_a5_proc_2 >= -2532
 c348: u_a14 - u_a5 - 1181 y_a5_proc_0 >= -3798
 c349: u_a14 - u_a5 - 738 y_a5_proc_1 >= -2532
 c350: u_a5 - u_a14 - 1106 y_a14_proc_2 >= -1
 c351: u_a5 - u_a14 - 850 y_a14_proc_0 >= -1267
 c352: u_a5 - u_a14 - 1150 y_a14_proc_1 >= -1
 c353: u_a7 - u_a6 - 1209 y_a6_proc_0 >= 1
 c354: u_a6 - u_a7 - 974 y_a7_proc_0 >= -2
 c355: u_a8 - u_a6 - 986 y_a6_proc_2 >= -2532
 c356: u_a8 - u_a6 - 1209 y_a6_proc_0 >= 0
 c357: u_a6 - u_a8 - 1089 y_a8_proc_2 >= -2533
 c358: u_a6 - u_a8 - 1088 y_a8_proc_0 >= -1
 c359: u_a9 - u_a6 - 986 y_a6_proc_2 >= -2533
 c360: u_a9 - u_a6 - 1209 y_a6_proc_0 >= -1
 c361: u_a6 - u_a9 - 1044 y_a9_proc_2 >= -2532
 c362: u_a6 - u_a9 - 858 y_a9_proc_0 >= 0
 c363: u_a10 - u_a6 - 986 y_a6_proc_2 >= -2532
 c364: u_a10 - u_a6 - 1209 y_a6_proc_0 >= 0
 c365: u_a6 - u_a10 - 1254 y_a10_proc_2 >= -2533
 c366: u_a6 - u_a10 - 1056 y_a10_proc_0 >= -1
 c367: u_a11 - u_a6 - 986 y_a6_proc_2 >= -3798
 c368: u_a11 - u_a6 - 1209 y_a6_proc_0 >= -2532
 c369: u_a6 - u_a11 - 848 y_a11_proc_2 >= -1267
 c370: u_a6 - u_a11 - 1080 y_a11_proc_0 >= -1
 c371: u_a12 - u_a6 - 986 y_a6_proc_2 >= -3798
 c372: u_a12 - u_a6 - 1209 y_a6_proc_0 >= -2532
 c373: u_a6 - u_a12 - 448 y_a12_proc_2 >= -1267
 c374: u_a6 - u_a12 - 1202 y_a12_proc_0 >= -1
 c375: u_a13 - u_a6 - 986 y_a6_proc_2 >= -2531
 c376: u_a13 - u_a6 - 1209 y_a6_proc_0 >= -2531
 c377: u_a6 - u_a13 - 1223 y_a13_proc_2 >= -2
 c378: u_a6 - u_a13 - 985 y_a13_proc_0 >= -2
 c379: u_a14 - u_a6 - 986 y_a6_proc_2 >= -2531
 c380: u_a14 - u_a6 - 1209 y_a6_proc_0 >= -2531
 c381: u_a6 - u_a14 - 1106 y_a14_proc_2 >= -2
 c382: u_a6 - u_a14 - 850 y_a14_proc_0 >= -2
 c383: u_a8 - u_a7 - 974 y_a7_proc_0 >= -1
 c384: u_a8 - u_a7 - 1119 y_a7_proc_1 >= -2533
 c385: u_a7 - u_a8 - 1088 y_a8_proc_0 >= 0
 c386: u_a7 - u_a8 - 705 y_a8_proc_1 >= -2532
 c387: u_a9 - u_a7 - 974 y_a7_proc_0 >= -2
 c388: u_a7 - u_a9 - 858 y_a9_proc_0 >= 1
 c389: u_a10 - u_a7 - 974 y_a7_proc_0 >= -1
 c390: u_a7 - u_a10 - 1056 y_a10_proc_0 >= 0
 c391: u_a11 - u_a7 - 974 y_a7_proc_0 >= -2533
 c392: u_a11 - u_a7 - 1119 y_a7_proc_1 >= -2533
 c393: u_a7 - u_a11 - 1080 y_a11_proc_0 >= 0
 c394: u_a7 - u_a11 - 981 y_a11_proc_1 >= 0
 c395: u_a12 - u_a7 - 974 y_a7_proc_0 >= -2533
 c396: u_a12 - u_a7 - 1119 y_a7_proc_1 >= -2533
 c397: u_a7 - u_a12 - 1202 y_a12_proc_0 >= 0
 c398: u_a7 - u_a12 - 1266 y_a12_proc_1 >= 0
 c399: u_a13 - u_a7 - 974 y_a7_proc_0 >= -2533
 c400: u_a13 - u_a7 - 1119 y_a7_proc_1 >= -3799
 c401: u_a7 - u_a13 - 985 y_a13_proc_0 >= 0
 c402: u_a7 - u_a13 - 1165 y_a13_proc_1 >= -1266
 c403: u_a14 - u_a7 - 974 y_a7_proc_0 >= -2532
 c404: u_a14 - u_a7 - 1119 y_a7_proc_1 >= -3798
 c405: u_a7 - u_a14 - 850 y_a14_proc_0 >= -1
 c406: u_a7 - u_a14 - 1150 y_a14_proc_1 >= -1267
 c407: u_a9 - u_a8 - 1089 y_a8_proc_2 >= -2533
 c408: u_a9 - u_a8 - 1088 y_a8_proc_0 >= -1
 c409: u_a8 - u_a9 - 1044 y_a9_proc_2 >= -2532
 c410: u_a8 - u_a9 - 858 y_a9_proc_0 >= 0
 c411: u_a10 - u_a8 - 1089 y_a8_proc_2 >= -2532
 c412: u_a10 - u_a8 - 1088 y_a8_proc_0 >= 0
 c413: u_a8 - u_a10 - 1254 y_a10_proc_2 >= -2533
 c414: u_a8 - u_a10 - 1056 y_a10_proc_0 >= -1
 c415: u_a11 - u_a8 - 1089 y_a8_proc_2 >= -3798
 c416: u_a11 - u_a8 - 1088 y_a8_proc_0 >= -2532
 c417: u_a11 - u_a8 - 705 y_a8_proc_1 >= -2532
 c418: u_a8 - u_a11 - 848 y_a11_proc_2 >= -1267
 c419: u_a8 - u_a11 - 1080 y_a11_proc_0 >= -1
 c420: u_a8 - u_a11 - 981 y_a11_proc_1 >= -1
 c421: u_a12 - u_a8 - 1089 y_a8_proc_2 >= -3798
 c422: u_a12 - u_a8 - 1088 y_a8_proc_0 >= -2532
 c423: u_a12 - u_a8 - 705 y_a8_proc_1 >= -2532
 c424: u_a8 - u_a12 - 448 y_a12_proc_2 >= -1267
 c425: u_a8 - u_a12 - 1202 y_a12_proc_0 >= -1
 c426: u_a8 - u_a12 - 1266 y_a12_proc_1 >= -1
 c427: u_a13 - u_a8 - 1089 y_a8_proc_2 >= -2532
 c428: u_a13 - u_a8 - 1088 y_a8_proc_0 >= -2532
 c429: u_a13 - u_a8 - 705 y_a8_proc_1 >= -3798
 c430: u_a8 - u_a13 - 1223 y_a13_proc_2 >= -1
 c431: u_a8 - u_a13 - 985 y_a13_proc_0 >= -1
 c432: u_a8 - u_a13 - 1165 y_a13_proc_1 >= -1267
 c433: u_a14 - u_a8 - 1089 y_a8_proc_2 >= -2532
 c434: u_a14 - u_a8 - 1088 y_a8_proc_0 >= -2532
 c435: u_a14 - u_a8 - 705 y_a8_proc_1 >= -3798
 c436: u_a8 - u_a14 - 1106 y_a14_proc_2 >= -1
 c437: u_a8 - u_a14 - 850 y_a14_proc_0 >= -1
 c438: u_a8 - u_a14 - 1150 y_a14_proc_1 >= -1267
 c439: u_a10 - u_a9 - 1044 y_a9_proc_2 >= -2532
 c440: u_a10 - u_a9 - 858 y_a9_proc_0 >= 0
 c441: u_a9 - u_a10 - 1254 y_a10_proc_2 >= -2533
 c442: u_a9 - u_a10 - 1056 y_a10_proc_0 >= -1
 c443: u_a11 - u_a9 - 1044 y_a9_proc_2 >= -3798
 c444: u_a11 - u_a9 - 858 y_a9_proc_0 >= -2532
 c445: u_a9 - u_a11 - 848 y_a11_proc_2 >= -1267
 c446: u_a9 - u_a11 - 1080 y_a11_proc_0 >= -1
 c447: u_a12 - u_a9 - 1044 y_a9_proc_2 >= -3798
 c448: u_a12 - u_a9 - 858 y_a9_proc_0 >= -2532
 c449: u_a9 - u_a12 - 448 y_a12_proc_2 >= -1267
 c450: u_a9 - u_a12 - 1202 y_a12_proc_0 >= -1
 c451: u_a13 - u_a9 - 1044 y_a9_proc_2 >= -2531
 c452: u_a13 - u_a9 - 858 y_a9_proc_0 >= -2531
 c453: u_a9 - u_a13 - 1223 y_a13_proc_2 >= -2
 c454: u_a9 - u_a13 - 985 y_a13_proc_0 >= -2
 c455: u_a14 - u_a9 - 1044 y_a9_proc_2 >= -2531
 c456: u_a14 - u_a9 - 858 y_a9_proc_0 >= -2531
 c457: u_a9 - u_a14 - 1106 y_a14_proc_2 >= -2
 c458: u_a9 - u_a14 - 850 y_a14_proc_0 >= -2
 c459: u_a11 - u_a10 - 1254 y_a10_proc_2 >= -3799
 c460: u_a11 - u_a10 - 1056 y_a10_proc_0 >= -2533
 c461: u_a10 - u_a11 - 848 y_a11_proc_2 >= -1266
 c462: u_a10 - u_a11 - 1080 y_a11_proc_0 >= 0
 c463: u_a12 - u_a10 - 1254 y_a10_proc_2 >= -3798
 c464: u_a12 - u_a10 - 1056 y_a10_proc_0 >= -2532
 c465: u_a10 - u_a12 - 448 y_a12_proc_2 >= -1267
 c466: u_a10 - u_a12 - 1202 y_a12_proc_0 >= -1
 c467: u_a13 - u_a10 - 1254 y_a10_proc_2 >= -2532
 c468: u_a13 - u_a10 - 1056 y_a10_proc_0 >= -2532
 c469: u_a10 - u_a13 - 1223 y_a13_proc_2 >= -1
 c470: u_a10 - u_a13 - 985 y_a13_proc_0 >= -1
 c471: u_a14 - u_a10 - 1254 y_a10_proc_2 >= -2532
 c472: u_a14 - u_a10 - 1056 y_a10_proc_0 >= -2532
 c473: u_a10 - u_a14 - 1106 y_a14_proc_2 >= -1
 c474: u_a10 - u_a14 - 850 y_a14_proc_0 >= -1
 c475: u_a12 - u_a11 - 848 y_a11_proc_2 >= -2532
 c476: u_a12 - u_a11 - 1080 y_a11_proc_0 >= -2532
 c477: u_a12 - u_a11 - 981 y_a11_proc_1 >= 0
 c478: u_a11 - u_a12 - 448 y_a12_proc_2 >= -2533
 c479: u_a11 - u_a12 - 1202 y_a12_proc_0 >= -2533
 c480: u_a11 - u_a12 - 1266 y_a12_proc_1 >= -1
 c481: u_a13 - u_a11 - 848 y_a11_proc_2 >= -2532
 c482: u_a13 - u_a11 - 1080 y_a11_proc_0 >= -3798
 c483: u_a13 - u_a11 - 981 y_a11_proc_1 >= -2532
 c484: u_a11 - u_a13 - 1223 y_a13_proc_2 >= -1
 c485: u_a11 - u_a13 - 985 y_a13_proc_0 >= -1267
 c486: u_a11 - u_a13 - 1165 y_a13_proc_1 >= -1
 c487: u_a14 - u_a11 - 848 y_a11_proc_2 >= -2532
 c488: u_a14 - u_a11 - 1080 y_a11_proc_0 >= -3798
 c489: u_a14 - u_a11 - 981 y_a11_proc_1 >= -2532
 c490: u_a11 - u_a14 - 1106 y_a14_proc_2 >= -1
 c491: u_a11 - u_a14 - 850 y_a14_proc_0 >= -1267
 c492: u_a11 - u_a14 - 1150 y_a14_proc_1 >= -1
 c493: u_a13 - u_a12 - 448 y_a12_proc_2 >= -2532
 c494: u_a13 - u_a12 - 1202 y_a12_proc_0 >= -3798
 c495: u_a13 - u_a12 - 1266 y_a12_proc_1 >= -2532
 c496: u_a12 - u_a13 - 1223 y_a13_proc_2 >= -1
 c497: u_a12 - u_a13 - 985 y_a13_proc_0 >= -1267
 c498: u_a12 - u_a13 - 1165 y_a13_proc_1 >= -1
 c499: u_a14 - u_a12 - 448 y_a12_proc_2 >= -2532
 c500: u_a14 - u_a12 - 1202 y_a12_proc_0 >= -3798
 c501: u_a14 - u_a12 - 1266 y_a12_proc_1 >= -2532
 c502: u_a12 - u_a14 - 1106 y_a14_proc_2 >= -1
 c503: u_a12 - u_a14 - 850 y_a14_proc_0 >= -1267
 c504: u_a12 - u_a14 - 1150 y_a14_proc_1 >= -1
 c505: u_a14 - u_a13 - 1223 y_a13_proc_2 >= 0
 c506: u_a14 - u_a13 - 985 y_a13_proc_0 >= -2532
 c507: u_a14 - u_a13 - 1165 y_a13_proc_1 >= -2532
 c508: u_a13 - u_a14 - 1106 y_a14_proc_2 >= -1
 c509: u_a13 - u_a14 - 850 y_a14_proc_0 >= -2533
 c510: u_a13 - u_a14 - 1150 y_a14_proc_1 >= -2533

Bounds
End
